Au8                                     
   1.00000000000000     
    20.0000000000000000    0.0000000000000000    0.0000000000000000
     0.0000000000000000   20.0000000000000000    0.0000000000000000
     0.0000000000000000    0.0000000000000000   20.0000000000000000
   Au
     8
Direct
  0.3381334857525109  0.4277897958615933  0.2880595991680696
  0.4595142271166429  0.3908980566547249  0.2523294167585259
  0.2093506410139535  0.4121711377551397  0.3257896711985481
  0.2980790110255293  0.4055803786477784  0.4256300396635642
  0.4141665735646828  0.3415917330673782  0.3660116936434470
  0.2910652386880973  0.5269729581342838  0.3725718520112219
  0.3276822160460972  0.2770640633041337  0.4481378156937569
  0.4101141067924868  0.3910998765749652  0.4952269118628796
 
  0.00000000E+00  0.00000000E+00  0.00000000E+00
  0.00000000E+00  0.00000000E+00  0.00000000E+00
  0.00000000E+00  0.00000000E+00  0.00000000E+00
  0.00000000E+00  0.00000000E+00  0.00000000E+00
  0.00000000E+00  0.00000000E+00  0.00000000E+00
  0.00000000E+00  0.00000000E+00  0.00000000E+00
  0.00000000E+00  0.00000000E+00  0.00000000E+00
  0.00000000E+00  0.00000000E+00  0.00000000E+00
