Au8
1
  20.00000    0.00000    0.00000
   0.00000   20.00000    0.00000
   0.00000    0.00000   20.00000
Au
8
Car
  16.67324   18.67311   15.65967
  19.08868   17.84831   15.19872
  14.13317   18.54910   16.49152
  16.14532   18.06079   18.27606
  18.37490   16.71956   17.42213
  15.59309   20.53230   17.26066
  16.74093   15.55534   19.19244
  18.21278   17.52485   19.97394
